(declare-const havoc Int)
(declare-const |havoc:2| Int)
(declare-const |K:91:92:95:127:133| Int)
(declare-const |havoc:10:25:126:132:138| Int)
(declare-const tmp Int)
(declare-const |phi_tmp:103:105:131:137| Int)
(declare-const |havoc:8:24:104:130:136| Int)
(declare-const |tmp':85:93:96:128:134| Int)
(declare-const |havoc:7:23:81| Int)
(declare-const |cp':84:94:97:129:135| Int)
(declare-const |havoc:1| Int)
(assert (and (<= (+ havoc -1000000) 0) (<= (+ (- havoc) -1000000) 0)
               (<= (+ |havoc:1| -1000000) 0)
               (<= (+ (- |havoc:1|) -1000000) 0)
               (<= (+ |havoc:2| -1000000) 0)
               (<= (+ (- |havoc:2|) -1000000) 0) (< (- havoc) 0)
               (< (- |havoc:1|) 0) (<= (- |havoc:2|) 0) (not (= |havoc:2| 0))
               (<= (+ |havoc:2| (- havoc) 1) 0)
               (< (+ |havoc:2| (- havoc) -1) 0) (<= (+ (- |havoc:2|) 1) 0)
               (not (= |havoc:7:23:81| 0)) (< (+ |havoc:2| (- havoc)) 0)
               (<= (- |havoc:2|) 0)
               (or (not (and (<= (- |K:91:92:95:127:133|) 0)
                               (<= |K:91:92:95:127:133| 0)))
                     (= (+ (- tmp) |tmp':85:93:96:128:134|) 0))
               (or (not (<= (+ (- |K:91:92:95:127:133|) 1) 0))
                     (= |tmp':85:93:96:128:134| 0))
               (or (not (<= (- |K:91:92:95:127:133|) 0))
                     (= (+ |cp':84:94:97:129:135| (- |K:91:92:95:127:133|)
                             (- |havoc:2|)) 0))
               (or (and (= |K:91:92:95:127:133| 0)
                          (= (+ tmp (- |tmp':85:93:96:128:134|)) 0)
                          (= (+ (- |cp':84:94:97:129:135|) |havoc:2|) 0))
                     (and (<= (+ (- |K:91:92:95:127:133|) 1) 0)
                            (<= (+ |havoc:2| (- havoc) 2) 0)
                            (<= (+ (- |havoc:2|) 1) 0)
                            (= |tmp':85:93:96:128:134| 0)
                            (<= (+ |cp':84:94:97:129:135| (- havoc) 1) 0)
                            (<= (+ (- |cp':84:94:97:129:135|) 2) 0)))
               (<= (- |K:91:92:95:127:133|) 0)
               (< (- |cp':84:94:97:129:135|) 0) (< (- havoc) 0)
               (or (and (or (< (+ |cp':84:94:97:129:135| (- havoc) 1) 0)
                              (< (+ (- |cp':84:94:97:129:135|) havoc -1) 0))
                          (not (= |havoc:8:24:104:130:136| 0))
                          (= (+ (- |phi_tmp:103:105:131:137|)
                                  |havoc:8:24:104:130:136|) 0))
                     (and (<= (+ (- |cp':84:94:97:129:135|) havoc -1) 0)
                            (<= (+ |cp':84:94:97:129:135| (- havoc) 1) 0)
                            (= (+ (- |phi_tmp:103:105:131:137|)
                                    |tmp':85:93:96:128:134|) 0)))
               (< (+ |cp':84:94:97:129:135| (- havoc)) 0)
               (<= (- |cp':84:94:97:129:135|) 0)
               (not (= (+ |cp':84:94:97:129:135| (- havoc) 1) 0))
               (< (+ |cp':84:94:97:129:135| (- havoc) 1) 0)
               (<= (+ (- |cp':84:94:97:129:135|) -1) 0)
               (not (= (+ |cp':84:94:97:129:135| (- havoc) 2) 0))
               (not (= |havoc:10:25:126:132:138| 0))
               (not (< (+ |cp':84:94:97:129:135| (- havoc) 1) 0))))
(check-sat)
